c Qdimacs file from skolem function generator
p cnf 571 1552
a 380 382 384 386 388 390 392 394 396 398 400 402 404 406 408 410 412 414 416 418 420 422 424 426 428 430 432 434 436 438 440 442 444 446 448 450 452 454 456 458 460 462 464 466 468 470 472 474 476 478 480 482 484 486 488 490 492 494 496 498 500 502 504 506 507 508 509 510 511 512 513 514 515 516 517 518 519 520 521 522 523 524 525 526 527 528 529 530 531 532 533 534 535 536 537 538 539 540 541 542 543 544 545 546 547 548 549 550 551 552 553 554 555 556 557 558 559 560 561 562 563 564 565 566 567 568 569 570 0
e 379 381 383 385 387 389 391 393 395 397 399 401 403 405 407 409 411 413 415 417 419 421 423 425 427 429 431 433 435 437 439 441 443 445 447 449 451 453 455 457 459 461 463 465 467 469 471 473 475 477 479 481 483 485 487 489 491 493 495 497 499 501 503 505 1 2 3 4 5 6 7 8 9 10 11 12 13 14 15 16 17 18 19 20 21 22 23 24 25 26 27 28 29 30 31 32 33 34 35 36 37 38 39 40 41 42 43 44 45 46 47 48 49 50 51 52 53 54 55 56 57 58 59 60 61 62 63 64 65 66 67 68 69 70 71 72 73 74 75 76 77 78 79 80 81 82 83 84 85 86 87 88 89 90 91 92 93 94 95 96 97 98 99 100 101 102 103 104 105 106 107 108 109 110 111 112 113 114 115 116 117 118 119 120 121 122 123 124 125 126 127 128 129 130 131 132 133 134 135 136 137 138 139 140 141 142 143 144 145 146 147 148 149 150 151 152 153 154 155 156 157 158 159 160 161 162 163 164 165 166 167 168 169 170 171 172 173 174 175 176 177 178 179 180 181 182 183 184 185 186 187 188 189 190 191 192 193 194 195 196 197 198 199 200 201 202 203 204 205 206 207 208 209 210 211 212 213 214 215 216 217 218 219 220 221 222 223 224 225 226 227 228 229 230 231 232 233 234 235 236 237 238 239 240 241 242 243 244 245 246 247 248 249 250 251 252 253 254 255 256 257 258 259 260 261 262 263 264 265 266 267 268 269 270 271 272 273 274 275 276 277 278 279 280 281 282 283 284 285 286 287 288 289 290 291 292 293 294 295 296 297 298 299 300 301 302 303 304 305 306 307 308 309 310 311 312 313 314 315 316 317 318 319 320 321 322 323 324 325 326 327 328 329 330 331 332 333 334 335 336 337 338 339 340 341 342 343 344 345 346 347 348 349 350 351 352 353 354 355 356 357 358 359 360 361 362 363 364 365 366 367 368 369 370 371 372 373 374 375 376 377 378 571 0
4 5 141 146 -149 0
-4 149 0
-4 -146 0
-4 -5 0
-4 -141 0
5 508 -6 0
5 -508 6 0
-5 -508 -6 0
-5 508 6 0
6 -7 -140 0
6 7 140 0
-6 7 -140 0
-6 -7 140 0
7 381 8 0
7 382 8 0
-7 -8 0
-7 -381 -382 0
8 381 -382 9 0
8 -381 382 9 0
-8 -9 0
-8 381 382 0
-8 -381 -382 0
9 383 10 0
9 384 10 0
-9 -10 0
-9 -383 -384 0
10 11 -139 0
-10 -11 0
-10 139 0
11 385 12 0
11 386 12 0
-11 -12 0
-11 -385 -386 0
12 385 -386 13 0
12 -385 386 13 0
-12 -13 0
-12 385 386 0
-12 -385 -386 0
13 387 14 0
13 388 14 0
-13 -14 0
-13 -387 -388 0
14 387 -388 15 0
14 -387 388 15 0
-14 -15 0
-14 387 388 0
-14 -387 -388 0
15 389 16 0
15 390 16 0
-15 -16 0
-15 -389 -390 0
16 389 -390 17 0
16 -389 390 17 0
-16 -17 0
-16 389 390 0
-16 -389 -390 0
17 391 18 0
17 392 18 0
-17 -18 0
-17 -391 -392 0
18 391 -392 19 0
18 -391 392 19 0
-18 -19 0
-18 391 392 0
-18 -391 -392 0
19 393 20 0
19 394 20 0
-19 -20 0
-19 -393 -394 0
20 393 -394 21 0
20 -393 394 21 0
-20 -21 0
-20 393 394 0
-20 -393 -394 0
21 395 22 0
21 396 22 0
-21 -22 0
-21 -395 -396 0
22 23 -138 0
-22 -23 0
-22 138 0
23 397 24 0
23 398 24 0
-23 -24 0
-23 -397 -398 0
24 397 -398 25 0
24 -397 398 25 0
-24 -25 0
-24 397 398 0
-24 -397 -398 0
25 399 26 0
25 400 26 0
-25 -26 0
-25 -399 -400 0
26 399 -400 27 0
26 -399 400 27 0
-26 -27 0
-26 399 400 0
-26 -399 -400 0
27 401 28 0
27 402 28 0
-27 -28 0
-27 -401 -402 0
28 401 -402 29 0
28 -401 402 29 0
-28 -29 0
-28 401 402 0
-28 -401 -402 0
29 403 30 0
29 404 30 0
-29 -30 0
-29 -403 -404 0
30 403 -404 31 0
30 -403 404 31 0
-30 -31 0
-30 403 404 0
-30 -403 -404 0
31 405 32 0
31 406 32 0
-31 -32 0
-31 -405 -406 0
32 405 -406 33 0
32 -405 406 33 0
-32 -33 0
-32 405 406 0
-32 -405 -406 0
33 407 34 0
33 408 34 0
-33 -34 0
-33 -407 -408 0
34 407 -408 35 0
34 -407 408 35 0
-34 -35 0
-34 407 408 0
-34 -407 -408 0
35 409 36 0
35 410 36 0
-35 -36 0
-35 -409 -410 0
36 409 -410 37 0
36 -409 410 37 0
-36 -37 0
-36 409 410 0
-36 -409 -410 0
37 411 38 0
37 412 38 0
-37 -38 0
-37 -411 -412 0
38 411 -412 39 0
38 -411 412 39 0
-38 -39 0
-38 411 412 0
-38 -411 -412 0
39 413 40 0
39 414 40 0
-39 -40 0
-39 -413 -414 0
40 413 -414 41 0
40 -413 414 41 0
-40 -41 0
-40 413 414 0
-40 -413 -414 0
41 415 42 0
41 416 42 0
-41 -42 0
-41 -415 -416 0
42 43 -137 0
-42 -43 0
-42 137 0
43 417 44 0
43 418 44 0
-43 -44 0
-43 -417 -418 0
44 417 -418 45 0
44 -417 418 45 0
-44 -45 0
-44 417 418 0
-44 -417 -418 0
45 419 46 0
45 420 46 0
-45 -46 0
-45 -419 -420 0
46 419 -420 47 0
46 -419 420 47 0
-46 -47 0
-46 419 420 0
-46 -419 -420 0
47 421 48 0
47 422 48 0
-47 -48 0
-47 -421 -422 0
48 421 -422 49 0
48 -421 422 49 0
-48 -49 0
-48 421 422 0
-48 -421 -422 0
49 423 50 0
49 424 50 0
-49 -50 0
-49 -423 -424 0
50 51 -136 0
-50 -51 0
-50 136 0
51 425 52 0
51 426 52 0
-51 -52 0
-51 -425 -426 0
52 425 -426 53 0
52 -425 426 53 0
-52 -53 0
-52 425 426 0
-52 -425 -426 0
53 427 54 0
53 428 54 0
-53 -54 0
-53 -427 -428 0
54 55 -135 0
-54 -55 0
-54 135 0
55 429 56 0
55 430 56 0
-55 -56 0
-55 -429 -430 0
56 429 -430 57 0
56 -429 430 57 0
-56 -57 0
-56 429 430 0
-56 -429 -430 0
57 431 58 0
57 432 58 0
-57 -58 0
-57 -431 -432 0
58 431 -432 59 0
58 -431 432 59 0
-58 -59 0
-58 431 432 0
-58 -431 -432 0
59 433 60 0
59 434 60 0
-59 -60 0
-59 -433 -434 0
60 433 -434 61 0
60 -433 434 61 0
-60 -61 0
-60 433 434 0
-60 -433 -434 0
61 435 62 0
61 436 62 0
-61 -62 0
-61 -435 -436 0
62 435 -436 63 0
62 -435 436 63 0
-62 -63 0
-62 435 436 0
-62 -435 -436 0
63 437 64 0
63 438 64 0
-63 -64 0
-63 -437 -438 0
64 437 -438 65 0
64 -437 438 65 0
-64 -65 0
-64 437 438 0
-64 -437 -438 0
65 439 66 0
65 440 66 0
-65 -66 0
-65 -439 -440 0
66 439 -440 67 0
66 -439 440 67 0
-66 -67 0
-66 439 440 0
-66 -439 -440 0
67 441 68 0
67 442 68 0
-67 -68 0
-67 -441 -442 0
68 441 -442 69 0
68 -441 442 69 0
-68 -69 0
-68 441 442 0
-68 -441 -442 0
69 443 70 0
69 444 70 0
-69 -70 0
-69 -443 -444 0
70 443 -444 71 0
70 -443 444 71 0
-70 -71 0
-70 443 444 0
-70 -443 -444 0
71 445 72 0
71 446 72 0
-71 -72 0
-71 -445 -446 0
72 445 -446 73 0
72 -445 446 73 0
-72 -73 0
-72 445 446 0
-72 -445 -446 0
73 447 74 0
73 448 74 0
-73 -74 0
-73 -447 -448 0
74 75 -134 0
-74 -75 0
-74 134 0
75 449 76 0
75 450 76 0
-75 -76 0
-75 -449 -450 0
76 449 -450 77 0
76 -449 450 77 0
-76 -77 0
-76 449 450 0
-76 -449 -450 0
77 451 78 0
77 452 78 0
-77 -78 0
-77 -451 -452 0
78 451 -452 79 0
78 -451 452 79 0
-78 -79 0
-78 451 452 0
-78 -451 -452 0
79 453 80 0
79 454 80 0
-79 -80 0
-79 -453 -454 0
80 453 -454 81 0
80 -453 454 81 0
-80 -81 0
-80 453 454 0
-80 -453 -454 0
81 455 82 0
81 456 82 0
-81 -82 0
-81 -455 -456 0
82 455 -456 83 0
82 -455 456 83 0
-82 -83 0
-82 455 456 0
-82 -455 -456 0
83 457 84 0
83 458 84 0
-83 -84 0
-83 -457 -458 0
84 457 -458 85 0
84 -457 458 85 0
-84 -85 0
-84 457 458 0
-84 -457 -458 0
85 459 86 0
85 460 86 0
-85 -86 0
-85 -459 -460 0
86 87 -133 0
-86 -87 0
-86 133 0
87 461 88 0
87 462 88 0
-87 -88 0
-87 -461 -462 0
88 461 -462 89 0
88 -461 462 89 0
-88 -89 0
-88 461 462 0
-88 -461 -462 0
89 463 90 0
89 464 90 0
-89 -90 0
-89 -463 -464 0
90 463 -464 91 0
90 -463 464 91 0
-90 -91 0
-90 463 464 0
-90 -463 -464 0
91 465 92 0
91 466 92 0
-91 -92 0
-91 -465 -466 0
92 465 -466 93 0
92 -465 466 93 0
-92 -93 0
-92 465 466 0
-92 -465 -466 0
93 467 94 0
93 468 94 0
-93 -94 0
-93 -467 -468 0
94 467 -468 95 0
94 -467 468 95 0
-94 -95 0
-94 467 468 0
-94 -467 -468 0
95 469 96 0
95 470 96 0
-95 -96 0
-95 -469 -470 0
96 469 -470 97 0
96 -469 470 97 0
-96 -97 0
-96 469 470 0
-96 -469 -470 0
97 471 98 0
97 472 98 0
-97 -98 0
-97 -471 -472 0
98 471 -472 99 0
98 -471 472 99 0
-98 -99 0
-98 471 472 0
-98 -471 -472 0
99 473 100 0
99 474 100 0
-99 -100 0
-99 -473 -474 0
100 473 -474 101 0
100 -473 474 101 0
-100 -101 0
-100 473 474 0
-100 -473 -474 0
101 475 102 0
101 476 102 0
-101 -102 0
-101 -475 -476 0
102 475 -476 103 0
102 -475 476 103 0
-102 -103 0
-102 475 476 0
-102 -475 -476 0
103 477 104 0
103 478 104 0
-103 -104 0
-103 -477 -478 0
104 477 -478 105 0
104 -477 478 105 0
-104 -105 0
-104 477 478 0
-104 -477 -478 0
105 479 106 0
105 480 106 0
-105 -106 0
-105 -479 -480 0
106 107 -132 0
-106 -107 0
-106 132 0
107 481 108 0
107 482 108 0
-107 -108 0
-107 -481 -482 0
108 481 -482 109 0
108 -481 482 109 0
-108 -109 0
-108 481 482 0
-108 -481 -482 0
109 483 110 0
109 484 110 0
-109 -110 0
-109 -483 -484 0
110 483 -484 111 0
110 -483 484 111 0
-110 -111 0
-110 483 484 0
-110 -483 -484 0
111 485 112 0
111 486 112 0
-111 -112 0
-111 -485 -486 0
112 485 -486 113 0
112 -485 486 113 0
-112 -113 0
-112 485 486 0
-112 -485 -486 0
113 487 114 0
113 488 114 0
-113 -114 0
-113 -487 -488 0
114 115 -131 0
-114 -115 0
-114 131 0
115 489 116 0
115 490 116 0
-115 -116 0
-115 -489 -490 0
116 489 -490 117 0
116 -489 490 117 0
-116 -117 0
-116 489 490 0
-116 -489 -490 0
117 491 118 0
117 492 118 0
-117 -118 0
-117 -491 -492 0
118 119 -130 0
-118 -119 0
-118 130 0
119 493 120 0
119 494 120 0
-119 -120 0
-119 -493 -494 0
120 493 -494 121 0
120 -493 494 121 0
-120 -121 0
-120 493 494 0
-120 -493 -494 0
121 495 122 0
121 496 122 0
-121 -122 0
-121 -495 -496 0
122 495 -496 123 0
122 -495 496 123 0
-122 -123 0
-122 495 496 0
-122 -495 -496 0
123 497 124 0
123 498 124 0
-123 -124 0
-123 -497 -498 0
124 497 -498 125 0
124 -497 498 125 0
-124 -125 0
-124 497 498 0
-124 -497 -498 0
125 499 126 0
125 500 126 0
-125 -126 0
-125 -499 -500 0
126 127 -129 0
-126 -127 0
-126 129 0
127 501 128 0
127 502 128 0
127 501 502 0
-127 -501 -502 0
-127 -502 -128 0
-127 -501 -128 0
128 -503 -504 0
-128 503 0
-128 504 0
129 499 -500 0
129 -499 500 0
-129 -499 -500 0
-129 499 500 0
130 491 -492 0
130 -491 492 0
-130 -491 -492 0
-130 491 492 0
131 487 -488 0
131 -487 488 0
-131 -487 -488 0
-131 487 488 0
132 479 -480 0
132 -479 480 0
-132 -479 -480 0
-132 479 480 0
133 459 -460 0
133 -459 460 0
-133 -459 -460 0
-133 459 460 0
134 447 -448 0
134 -447 448 0
-134 -447 -448 0
-134 447 448 0
135 427 -428 0
135 -427 428 0
-135 -427 -428 0
-135 427 428 0
136 423 -424 0
136 -423 424 0
-136 -423 -424 0
-136 423 424 0
137 415 -416 0
137 -415 416 0
-137 -415 -416 0
-137 415 416 0
138 395 -396 0
138 -395 396 0
-138 -395 -396 0
-138 395 396 0
139 383 -384 0
139 -383 384 0
-139 -383 -384 0
-139 383 384 0
140 379 -380 0
140 -379 380 0
-140 -379 -380 0
-140 379 380 0
141 -142 -144 0
141 142 144 0
-141 142 -144 0
-141 -142 144 0
142 379 143 0
142 380 143 0
-142 -143 0
-142 -379 -380 0
143 379 -380 7 0
143 -379 380 7 0
-143 -7 0
-143 379 380 0
-143 -379 -380 0
144 507 -145 0
144 -507 145 0
-144 -507 -145 0
-144 507 145 0
145 505 -506 0
145 -505 506 0
-145 -505 -506 0
-145 505 506 0
146 509 -147 0
146 -509 147 0
-146 -509 -147 0
-146 509 147 0
147 -9 -148 0
147 9 148 0
-147 9 -148 0
-147 -9 148 0
148 381 -382 0
148 -381 382 0
-148 -381 -382 0
-148 381 382 0
149 150 152 155 -158 0
-149 158 0
-149 -155 0
-149 -150 0
-149 -152 0
150 510 -151 0
150 -510 151 0
-150 -510 -151 0
-150 510 151 0
151 -11 -139 0
151 11 139 0
-151 11 -139 0
-151 -11 139 0
152 511 -153 0
152 -511 153 0
-152 -511 -153 0
-152 511 153 0
153 -13 -154 0
153 13 154 0
-153 13 -154 0
-153 -13 154 0
154 385 -386 0
154 -385 386 0
-154 -385 -386 0
-154 385 386 0
155 512 -156 0
155 -512 156 0
-155 -512 -156 0
-155 512 156 0
156 -15 -157 0
156 15 157 0
-156 15 -157 0
-156 -15 157 0
157 387 -388 0
157 -387 388 0
-157 -387 -388 0
-157 387 388 0
158 159 162 -165 0
-158 165 0
-158 -162 0
-158 -159 0
159 513 -160 0
159 -513 160 0
-159 -513 -160 0
-159 513 160 0
160 -17 -161 0
160 17 161 0
-160 17 -161 0
-160 -17 161 0
161 389 -390 0
161 -389 390 0
-161 -389 -390 0
-161 389 390 0
162 514 -163 0
162 -514 163 0
-162 -514 -163 0
-162 514 163 0
163 -19 -164 0
163 19 164 0
-163 19 -164 0
-163 -19 164 0
164 391 -392 0
164 -391 392 0
-164 -391 -392 0
-164 391 392 0
165 166 169 -171 0
-165 171 0
-165 -169 0
-165 -166 0
166 515 -167 0
166 -515 167 0
-166 -515 -167 0
-166 515 167 0
167 -21 -168 0
167 21 168 0
-167 21 -168 0
-167 -21 168 0
168 393 -394 0
168 -393 394 0
-168 -393 -394 0
-168 393 394 0
169 516 -170 0
169 -516 170 0
-169 -516 -170 0
-169 516 170 0
170 -23 -138 0
170 23 138 0
-170 23 -138 0
-170 -23 138 0
171 172 175 -178 0
-171 178 0
-171 -175 0
-171 -172 0
172 517 -173 0
172 -517 173 0
-172 -517 -173 0
-172 517 173 0
173 -25 -174 0
173 25 174 0
-173 25 -174 0
-173 -25 174 0
174 397 -398 0
174 -397 398 0
-174 -397 -398 0
-174 397 398 0
175 518 -176 0
175 -518 176 0
-175 -518 -176 0
-175 518 176 0
176 -27 -177 0
176 27 177 0
-176 27 -177 0
-176 -27 177 0
177 399 -400 0
177 -399 400 0
-177 -399 -400 0
-177 399 400 0
178 179 182 -185 0
-178 185 0
-178 -182 0
-178 -179 0
179 519 -180 0
179 -519 180 0
-179 -519 -180 0
-179 519 180 0
180 -29 -181 0
180 29 181 0
-180 29 -181 0
-180 -29 181 0
181 401 -402 0
181 -401 402 0
-181 -401 -402 0
-181 401 402 0
182 520 -183 0
182 -520 183 0
-182 -520 -183 0
-182 520 183 0
183 -31 -184 0
183 31 184 0
-183 31 -184 0
-183 -31 184 0
184 403 -404 0
184 -403 404 0
-184 -403 -404 0
-184 403 404 0
185 186 189 -192 0
-185 192 0
-185 -189 0
-185 -186 0
186 521 -187 0
186 -521 187 0
-186 -521 -187 0
-186 521 187 0
187 -33 -188 0
187 33 188 0
-187 33 -188 0
-187 -33 188 0
188 405 -406 0
188 -405 406 0
-188 -405 -406 0
-188 405 406 0
189 522 -190 0
189 -522 190 0
-189 -522 -190 0
-189 522 190 0
190 -35 -191 0
190 35 191 0
-190 35 -191 0
-190 -35 191 0
191 407 -408 0
191 -407 408 0
-191 -407 -408 0
-191 407 408 0
192 193 196 -199 0
-192 199 0
-192 -196 0
-192 -193 0
193 523 -194 0
193 -523 194 0
-193 -523 -194 0
-193 523 194 0
194 -37 -195 0
194 37 195 0
-194 37 -195 0
-194 -37 195 0
195 409 -410 0
195 -409 410 0
-195 -409 -410 0
-195 409 410 0
196 524 -197 0
196 -524 197 0
-196 -524 -197 0
-196 524 197 0
197 -39 -198 0
197 39 198 0
-197 39 -198 0
-197 -39 198 0
198 411 -412 0
198 -411 412 0
-198 -411 -412 0
-198 411 412 0
199 200 203 -205 0
-199 205 0
-199 -203 0
-199 -200 0
200 525 -201 0
200 -525 201 0
-200 -525 -201 0
-200 525 201 0
201 -41 -202 0
201 41 202 0
-201 41 -202 0
-201 -41 202 0
202 413 -414 0
202 -413 414 0
-202 -413 -414 0
-202 413 414 0
203 526 -204 0
203 -526 204 0
-203 -526 -204 0
-203 526 204 0
204 -43 -137 0
204 43 137 0
-204 43 -137 0
-204 -43 137 0
205 206 209 -212 0
-205 212 0
-205 -209 0
-205 -206 0
206 527 -207 0
206 -527 207 0
-206 -527 -207 0
-206 527 207 0
207 -45 -208 0
207 45 208 0
-207 45 -208 0
-207 -45 208 0
208 417 -418 0
208 -417 418 0
-208 -417 -418 0
-208 417 418 0
209 528 -210 0
209 -528 210 0
-209 -528 -210 0
-209 528 210 0
210 -47 -211 0
210 47 211 0
-210 47 -211 0
-210 -47 211 0
211 419 -420 0
211 -419 420 0
-211 -419 -420 0
-211 419 420 0
212 213 216 -218 0
-212 218 0
-212 -216 0
-212 -213 0
213 529 -214 0
213 -529 214 0
-213 -529 -214 0
-213 529 214 0
214 -49 -215 0
214 49 215 0
-214 49 -215 0
-214 -49 215 0
215 421 -422 0
215 -421 422 0
-215 -421 -422 0
-215 421 422 0
216 530 -217 0
216 -530 217 0
-216 -530 -217 0
-216 530 217 0
217 -51 -136 0
217 51 136 0
-217 51 -136 0
-217 -51 136 0
218 219 222 -224 0
-218 224 0
-218 -222 0
-218 -219 0
219 531 -220 0
219 -531 220 0
-219 -531 -220 0
-219 531 220 0
220 -53 -221 0
220 53 221 0
-220 53 -221 0
-220 -53 221 0
221 425 -426 0
221 -425 426 0
-221 -425 -426 0
-221 425 426 0
222 532 -223 0
222 -532 223 0
-222 -532 -223 0
-222 532 223 0
223 -55 -135 0
223 55 135 0
-223 55 -135 0
-223 -55 135 0
224 225 228 -231 0
-224 231 0
-224 -228 0
-224 -225 0
225 533 -226 0
225 -533 226 0
-225 -533 -226 0
-225 533 226 0
226 -57 -227 0
226 57 227 0
-226 57 -227 0
-226 -57 227 0
227 429 -430 0
227 -429 430 0
-227 -429 -430 0
-227 429 430 0
228 534 -229 0
228 -534 229 0
-228 -534 -229 0
-228 534 229 0
229 -59 -230 0
229 59 230 0
-229 59 -230 0
-229 -59 230 0
230 431 -432 0
230 -431 432 0
-230 -431 -432 0
-230 431 432 0
231 232 235 -238 0
-231 238 0
-231 -235 0
-231 -232 0
232 535 -233 0
232 -535 233 0
-232 -535 -233 0
-232 535 233 0
233 -61 -234 0
233 61 234 0
-233 61 -234 0
-233 -61 234 0
234 433 -434 0
234 -433 434 0
-234 -433 -434 0
-234 433 434 0
235 536 -236 0
235 -536 236 0
-235 -536 -236 0
-235 536 236 0
236 -63 -237 0
236 63 237 0
-236 63 -237 0
-236 -63 237 0
237 435 -436 0
237 -435 436 0
-237 -435 -436 0
-237 435 436 0
238 239 242 -245 0
-238 245 0
-238 -242 0
-238 -239 0
239 537 -240 0
239 -537 240 0
-239 -537 -240 0
-239 537 240 0
240 -65 -241 0
240 65 241 0
-240 65 -241 0
-240 -65 241 0
241 437 -438 0
241 -437 438 0
-241 -437 -438 0
-241 437 438 0
242 538 -243 0
242 -538 243 0
-242 -538 -243 0
-242 538 243 0
243 -67 -244 0
243 67 244 0
-243 67 -244 0
-243 -67 244 0
244 439 -440 0
244 -439 440 0
-244 -439 -440 0
-244 439 440 0
245 246 249 -252 0
-245 252 0
-245 -249 0
-245 -246 0
246 539 -247 0
246 -539 247 0
-246 -539 -247 0
-246 539 247 0
247 -69 -248 0
247 69 248 0
-247 69 -248 0
-247 -69 248 0
248 441 -442 0
248 -441 442 0
-248 -441 -442 0
-248 441 442 0
249 540 -250 0
249 -540 250 0
-249 -540 -250 0
-249 540 250 0
250 -71 -251 0
250 71 251 0
-250 71 -251 0
-250 -71 251 0
251 443 -444 0
251 -443 444 0
-251 -443 -444 0
-251 443 444 0
252 253 256 -258 0
-252 258 0
-252 -256 0
-252 -253 0
253 541 -254 0
253 -541 254 0
-253 -541 -254 0
-253 541 254 0
254 -73 -255 0
254 73 255 0
-254 73 -255 0
-254 -73 255 0
255 445 -446 0
255 -445 446 0
-255 -445 -446 0
-255 445 446 0
256 542 -257 0
256 -542 257 0
-256 -542 -257 0
-256 542 257 0
257 -75 -134 0
257 75 134 0
-257 75 -134 0
-257 -75 134 0
258 259 262 -265 0
-258 265 0
-258 -262 0
-258 -259 0
259 543 -260 0
259 -543 260 0
-259 -543 -260 0
-259 543 260 0
260 -77 -261 0
260 77 261 0
-260 77 -261 0
-260 -77 261 0
261 449 -450 0
261 -449 450 0
-261 -449 -450 0
-261 449 450 0
262 544 -263 0
262 -544 263 0
-262 -544 -263 0
-262 544 263 0
263 -79 -264 0
263 79 264 0
-263 79 -264 0
-263 -79 264 0
264 451 -452 0
264 -451 452 0
-264 -451 -452 0
-264 451 452 0
265 266 269 -272 0
-265 272 0
-265 -269 0
-265 -266 0
266 545 -267 0
266 -545 267 0
-266 -545 -267 0
-266 545 267 0
267 -81 -268 0
267 81 268 0
-267 81 -268 0
-267 -81 268 0
268 453 -454 0
268 -453 454 0
-268 -453 -454 0
-268 453 454 0
269 546 -270 0
269 -546 270 0
-269 -546 -270 0
-269 546 270 0
270 -83 -271 0
270 83 271 0
-270 83 -271 0
-270 -83 271 0
271 455 -456 0
271 -455 456 0
-271 -455 -456 0
-271 455 456 0
272 273 276 -278 0
-272 278 0
-272 -276 0
-272 -273 0
273 547 -274 0
273 -547 274 0
-273 -547 -274 0
-273 547 274 0
274 -85 -275 0
274 85 275 0
-274 85 -275 0
-274 -85 275 0
275 457 -458 0
275 -457 458 0
-275 -457 -458 0
-275 457 458 0
276 548 -277 0
276 -548 277 0
-276 -548 -277 0
-276 548 277 0
277 -87 -133 0
277 87 133 0
-277 87 -133 0
-277 -87 133 0
278 279 282 -285 0
-278 285 0
-278 -282 0
-278 -279 0
279 549 -280 0
279 -549 280 0
-279 -549 -280 0
-279 549 280 0
280 -89 -281 0
280 89 281 0
-280 89 -281 0
-280 -89 281 0
281 461 -462 0
281 -461 462 0
-281 -461 -462 0
-281 461 462 0
282 550 -283 0
282 -550 283 0
-282 -550 -283 0
-282 550 283 0
283 -91 -284 0
283 91 284 0
-283 91 -284 0
-283 -91 284 0
284 463 -464 0
284 -463 464 0
-284 -463 -464 0
-284 463 464 0
285 286 289 -292 0
-285 292 0
-285 -289 0
-285 -286 0
286 551 -287 0
286 -551 287 0
-286 -551 -287 0
-286 551 287 0
287 -93 -288 0
287 93 288 0
-287 93 -288 0
-287 -93 288 0
288 465 -466 0
288 -465 466 0
-288 -465 -466 0
-288 465 466 0
289 552 -290 0
289 -552 290 0
-289 -552 -290 0
-289 552 290 0
290 -95 -291 0
290 95 291 0
-290 95 -291 0
-290 -95 291 0
291 467 -468 0
291 -467 468 0
-291 -467 -468 0
-291 467 468 0
292 293 296 -299 0
-292 299 0
-292 -296 0
-292 -293 0
293 553 -294 0
293 -553 294 0
-293 -553 -294 0
-293 553 294 0
294 -97 -295 0
294 97 295 0
-294 97 -295 0
-294 -97 295 0
295 469 -470 0
295 -469 470 0
-295 -469 -470 0
-295 469 470 0
296 554 -297 0
296 -554 297 0
-296 -554 -297 0
-296 554 297 0
297 -99 -298 0
297 99 298 0
-297 99 -298 0
-297 -99 298 0
298 471 -472 0
298 -471 472 0
-298 -471 -472 0
-298 471 472 0
299 300 303 -306 0
-299 306 0
-299 -303 0
-299 -300 0
300 555 -301 0
300 -555 301 0
-300 -555 -301 0
-300 555 301 0
301 -101 -302 0
301 101 302 0
-301 101 -302 0
-301 -101 302 0
302 473 -474 0
302 -473 474 0
-302 -473 -474 0
-302 473 474 0
303 556 -304 0
303 -556 304 0
-303 -556 -304 0
-303 556 304 0
304 -103 -305 0
304 103 305 0
-304 103 -305 0
-304 -103 305 0
305 475 -476 0
305 -475 476 0
-305 -475 -476 0
-305 475 476 0
306 307 310 -312 0
-306 312 0
-306 -310 0
-306 -307 0
307 557 -308 0
307 -557 308 0
-307 -557 -308 0
-307 557 308 0
308 -105 -309 0
308 105 309 0
-308 105 -309 0
-308 -105 309 0
309 477 -478 0
309 -477 478 0
-309 -477 -478 0
-309 477 478 0
310 558 -311 0
310 -558 311 0
-310 -558 -311 0
-310 558 311 0
311 -107 -132 0
311 107 132 0
-311 107 -132 0
-311 -107 132 0
312 313 316 -319 0
-312 319 0
-312 -316 0
-312 -313 0
313 559 -314 0
313 -559 314 0
-313 -559 -314 0
-313 559 314 0
314 -109 -315 0
314 109 315 0
-314 109 -315 0
-314 -109 315 0
315 481 -482 0
315 -481 482 0
-315 -481 -482 0
-315 481 482 0
316 560 -317 0
316 -560 317 0
-316 -560 -317 0
-316 560 317 0
317 -111 -318 0
317 111 318 0
-317 111 -318 0
-317 -111 318 0
318 483 -484 0
318 -483 484 0
-318 -483 -484 0
-318 483 484 0
319 320 323 -325 0
-319 325 0
-319 -323 0
-319 -320 0
320 561 -321 0
320 -561 321 0
-320 -561 -321 0
-320 561 321 0
321 -113 -322 0
321 113 322 0
-321 113 -322 0
-321 -113 322 0
322 485 -486 0
322 -485 486 0
-322 -485 -486 0
-322 485 486 0
323 562 -324 0
323 -562 324 0
-323 -562 -324 0
-323 562 324 0
324 -115 -131 0
324 115 131 0
-324 115 -131 0
-324 -115 131 0
325 326 329 -331 0
-325 331 0
-325 -329 0
-325 -326 0
326 563 -327 0
326 -563 327 0
-326 -563 -327 0
-326 563 327 0
327 -117 -328 0
327 117 328 0
-327 117 -328 0
-327 -117 328 0
328 489 -490 0
328 -489 490 0
-328 -489 -490 0
-328 489 490 0
329 564 -330 0
329 -564 330 0
-329 -564 -330 0
-329 564 330 0
330 -119 -130 0
330 119 130 0
-330 119 -130 0
-330 -119 130 0
331 332 335 338 -341 0
-331 341 0
-331 -338 0
-331 -332 0
-331 -335 0
332 565 -333 0
332 -565 333 0
-332 -565 -333 0
-332 565 333 0
333 -121 -334 0
333 121 334 0
-333 121 -334 0
-333 -121 334 0
334 493 -494 0
334 -493 494 0
-334 -493 -494 0
-334 493 494 0
335 566 -336 0
335 -566 336 0
-335 -566 -336 0
-335 566 336 0
336 -123 -337 0
336 123 337 0
-336 123 -337 0
-336 -123 337 0
337 495 -496 0
337 -495 496 0
-337 -495 -496 0
-337 495 496 0
338 567 -339 0
338 -567 339 0
-338 -567 -339 0
-338 567 339 0
339 -125 -340 0
339 125 340 0
-339 125 -340 0
-339 -125 340 0
340 497 -498 0
340 -497 498 0
-340 -497 -498 0
-340 497 498 0
341 342 344 347 0
-341 -342 0
-341 -347 0
-341 -344 0
342 568 -343 0
342 -568 343 0
-342 -568 -343 0
-342 568 343 0
343 -127 -129 0
343 127 129 0
-343 127 -129 0
-343 -127 129 0
344 569 -345 0
344 -569 345 0
-344 -569 -345 0
-344 569 345 0
345 128 -346 0
345 -128 346 0
-345 -128 -346 0
-345 128 346 0
346 501 -502 0
346 -501 502 0
-346 -501 -502 0
-346 501 502 0
347 570 -348 0
347 -570 348 0
-347 -570 -348 0
-347 570 348 0
348 503 -504 0
348 -503 504 0
-348 -503 -504 0
-348 503 504 0
349 342 344 347 -350 0
-349 350 0
-349 -347 0
-349 -342 0
-349 -344 0
350 335 338 -351 0
-350 351 0
-350 -338 0
-350 -335 0
351 329 332 -352 0
-351 352 0
-351 -332 0
-351 -329 0
352 323 326 -353 0
-352 353 0
-352 -326 0
-352 -323 0
353 316 320 -354 0
-353 354 0
-353 -320 0
-353 -316 0
354 310 313 -355 0
-354 355 0
-354 -313 0
-354 -310 0
355 303 307 -356 0
-355 356 0
-355 -307 0
-355 -303 0
356 296 300 -357 0
-356 357 0
-356 -300 0
-356 -296 0
357 289 293 -358 0
-357 358 0
-357 -293 0
-357 -289 0
358 282 286 -359 0
-358 359 0
-358 -286 0
-358 -282 0
359 276 279 -360 0
-359 360 0
-359 -279 0
-359 -276 0
360 269 273 -361 0
-360 361 0
-360 -273 0
-360 -269 0
361 262 266 -362 0
-361 362 0
-361 -266 0
-361 -262 0
362 256 259 -363 0
-362 363 0
-362 -259 0
-362 -256 0
363 249 253 -364 0
-363 364 0
-363 -253 0
-363 -249 0
364 242 246 -365 0
-364 365 0
-364 -246 0
-364 -242 0
365 235 239 -366 0
-365 366 0
-365 -239 0
-365 -235 0
366 228 232 -367 0
-366 367 0
-366 -232 0
-366 -228 0
367 222 225 -368 0
-367 368 0
-367 -225 0
-367 -222 0
368 216 219 -369 0
-368 369 0
-368 -219 0
-368 -216 0
369 209 213 -370 0
-369 370 0
-369 -213 0
-369 -209 0
370 203 206 -371 0
-370 371 0
-370 -206 0
-370 -203 0
371 196 200 -372 0
-371 372 0
-371 -200 0
-371 -196 0
372 189 193 -373 0
-372 373 0
-372 -193 0
-372 -189 0
373 182 186 -374 0
-373 374 0
-373 -186 0
-373 -182 0
374 175 179 -375 0
-374 375 0
-374 -179 0
-374 -175 0
375 169 172 -376 0
-375 376 0
-375 -172 0
-375 -169 0
376 162 166 -377 0
-376 377 0
-376 -166 0
-376 -162 0
377 152 155 159 -378 0
-377 378 0
-377 -159 0
-377 -152 0
-377 -155 0
378 5 141 146 150 0
-378 -150 0
-378 -146 0
-378 -5 0
-378 -141 0
571 0
2 -4 0
-2 4 0
3 -349 0
-3 349 0
3 0

